#######################################
### Exact MIP solver for the HHCRSP ###
#######################################
-- Instance file: new-instances/HHCRSP_400_80_77_0.8_C_C.txt
-- Max threads: 4
-- Time limit: 999999 seconds
-- Use initial solution: No
Trivial flow violations prevented generating 2823482 variables.
Version identifier: 20.1.0.0 | 2020-11-10 | 9bedb6d68
CPXPARAM_Threads                                 4
CPXPARAM_Emphasis_Memory                         1
CPXPARAM_TimeLimit                               999999
Tried aggregator 1 time.
Presolve has eliminated 90870 rows and 23149 columns...
LP Presolve eliminated 90870 rows and 23149 columns.
Reduced LP has 3501204 rows, 3312434 columns, and 108252809 nonzeros.
Presolve time = 115.76 sec. (22721.38 ticks)
Compression time = 23.15 sec. (6.61 ticks)
Compression reduced 1536.45 MB A matrix to 460.81 MB
Symmetry aggregator did 6079395 additional substitutions.
Initializing dual steep norms . . .
Elapsed time = 140.55 sec. (23547.03 ticks, 1 iterations)

Iteration log . . .
Iteration:     1   Dual objective     =             0.666667
Iteration:  1773   Dual objective     =           405.333333

Dual crossover.
  Dual:  Fixing 2909 variables.
     2908 DMoves:  Infeasibility  7.19180271e-12  Objective  4.07666667e+02
        0 DMoves:  Infeasibility  4.05750434e-12  Objective  4.07666667e+02
  Dual:  Pushed 79, exchanged 2830.
  Primal:  Fixing 3211 variables.
     3210 PMoves:  Infeasibility  3.23867452e-15  Objective  4.07666667e+02
        0 PMoves:  Infeasibility  7.07241340e-15  Objective  4.07666667e+02
  Primal:  Pushed 3010, exchanged 201.

Solution status from MIP model:
-- Processing time: 187.54 sec.
-- Memory used: 2286.42 MB
-- Best bound: inf
-- Obj value: 407.667
-- Gap: inf%
-- Total distance: 1223
-- Total tardiness: 0
-- Largest tardiness: 0
